33D32945 STP File, STP Format Version 1.0

SECTION Comments
Name "edge_n10_d5_s6"
Problem "Euclidean Steiner Tree Problem"
Remark "Generated with STPGenerator. 5 dimensions."
END

SECTION Graph
Nodes 10
END

SECTION Coordinates
DDDDD 0 0.1354387687 0.1354387687 0.1354387687 0.1354387687 0.1354387687
DDDDD 1 0.9625167521 0.9625167521 0.9625167521 0.9625167521 0.9625167521
DDDDD 2 0.7997272130 0.7997272130 0.7997272130 0.7997272130 0.7997272130
DDDDD 3 0.4030091993 0.4030091993 0.4030091993 0.4030091993 0.4030091993
DDDDD 4 0.0851281491 0.0851281491 0.0851281491 0.0851281491 0.0851281491
DDDDD 5 0.8056346727 0.8056346727 0.8056346727 0.8056346727 0.8056346727
DDDDD 6 0.6451566176 0.6451566176 0.6451566176 0.6451566176 0.6451566176
DDDDD 7 0.2473998085 0.2473998085 0.2473998085 0.2473998085 0.2473998085
DDDDD 8 0.3098868776 0.3098868776 0.3098868776 0.3098868776 0.3098868776
DDDDD 9 0.9831179767 0.9831179767 0.9831179767 0.9831179767 0.9831179767
END
